NAME : prob10b.4490.tour
COMMENT : Cost = 0_4490
COMMENT : Found by LKH [Keld Helsgaun] Sun Sep 17 01:05:32 2017
TYPE : TOUR
DIMENSION : 21
TOUR_SECTION
1
18
13
15
16
6
12
20
21
19
3
2
9
5
14
17
8
10
11
7
4
-1
EOF
